Mack/Bortfeldt(2008)
Bin-Packing-Problem
BP-RG/SBSBPP/SSSCSP
Testcase-ID	11
Problem-ID	2
no_item_types	3
no_items	3117
CONTAINER_DATA (l,w,h)	404	50	1
ITEMS_DATA:
Type	x	y	z	no_items
1	38	32	1	1049
2	30	20	1	1005
3	12	10	1	1063
